138
1000000
223671
244435
308049
288670
176020
12714
55229
6694
30517
347253
16625
410173
297019
242159
361721
119653
77341
462237
246342
3496
362267
130267
74951
292549
251
72548
246684
328456
403453
419040
272067
179371
105544
368457
214227
325949
76046
311980
232488
405245
161266
213184
103422
139991
71410
395491
491714
370719
292628
190796
451364
173673
57721
482653
348595
21343
30570
176984
365878
18865
326370
442877
302299
145390
225002
186585
269301
145977
283909
407211
310722
359806
121324
102688
68557
209055
177146
71545
118153
102395
101075
287417
251466
94660
193728
495178
398496
144733
48552
226719
303079
92936
150018
54621
257385
27833
138952
328231
304163
118061
462652
20321
108782
22628
415635
112561
310629
111359
90892
190838
448899
209210
107387
403917
34998
2976
278949
95988
254538
450407
205136
283550
5428
366618
206487
125133
3600
286821
476727
210773
438100
176805
7767
11693
345405
183677
338820
490154
